c CNF file corresponding to a (partial) station packing problem.
p cnf 2506 229
1 2 3 4 5 6 7 8 9 10 11 12 13 14 0
-1 -2 0
-1 -3 0
-1 -4 0
-1 -5 0
-1 -6 0
-1 -7 0
-1 -8 0
-1 -9 0
-1 -10 0
-1 -11 0
-1 -12 0
-1 -13 0
-1 -14 0
-2 -3 0
-2 -4 0
-2 -5 0
-2 -6 0
-2 -7 0
-2 -8 0
-2 -9 0
-2 -10 0
-2 -11 0
-2 -12 0
-2 -13 0
-2 -14 0
-3 -4 0
-3 -5 0
-3 -6 0
-3 -7 0
-3 -8 0
-3 -9 0
-3 -10 0
-3 -11 0
-3 -12 0
-3 -13 0
-3 -14 0
-4 -5 0
-4 -6 0
-4 -7 0
-4 -8 0
-4 -9 0
-4 -10 0
-4 -11 0
-4 -12 0
-4 -13 0
-4 -14 0
-5 -6 0
-5 -7 0
-5 -8 0
-5 -9 0
-5 -10 0
-5 -11 0
-5 -12 0
-5 -13 0
-5 -14 0
-6 -7 0
-6 -8 0
-6 -9 0
-6 -10 0
-6 -11 0
-6 -12 0
-6 -13 0
-6 -14 0
-7 -8 0
-7 -9 0
-7 -10 0
-7 -11 0
-7 -12 0
-7 -13 0
-7 -14 0
-8 -9 0
-8 -10 0
-8 -11 0
-8 -12 0
-8 -13 0
-8 -14 0
-9 -10 0
-9 -11 0
-9 -12 0
-9 -13 0
-9 -14 0
-10 -11 0
-10 -12 0
-10 -13 0
-10 -14 0
-11 -12 0
-11 -13 0
-11 -14 0
-12 -13 0
-12 -14 0
-13 -14 0
2490 2491 2492 2493 2494 2495 2496 2497 2498 2499 2500 2501 2502 2503 2504 2505 2506 0
-2490 -2491 0
-2490 -2492 0
-2490 -2493 0
-2490 -2494 0
-2490 -2495 0
-2490 -2496 0
-2490 -2497 0
-2490 -2498 0
-2490 -2499 0
-2490 -2500 0
-2490 -2501 0
-2490 -2502 0
-2490 -2503 0
-2490 -2504 0
-2490 -2505 0
-2490 -2506 0
-2491 -2492 0
-2491 -2493 0
-2491 -2494 0
-2491 -2495 0
-2491 -2496 0
-2491 -2497 0
-2491 -2498 0
-2491 -2499 0
-2491 -2500 0
-2491 -2501 0
-2491 -2502 0
-2491 -2503 0
-2491 -2504 0
-2491 -2505 0
-2491 -2506 0
-2492 -2493 0
-2492 -2494 0
-2492 -2495 0
-2492 -2496 0
-2492 -2497 0
-2492 -2498 0
-2492 -2499 0
-2492 -2500 0
-2492 -2501 0
-2492 -2502 0
-2492 -2503 0
-2492 -2504 0
-2492 -2505 0
-2492 -2506 0
-2493 -2494 0
-2493 -2495 0
-2493 -2496 0
-2493 -2497 0
-2493 -2498 0
-2493 -2499 0
-2493 -2500 0
-2493 -2501 0
-2493 -2502 0
-2493 -2503 0
-2493 -2504 0
-2493 -2505 0
-2493 -2506 0
-2494 -2495 0
-2494 -2496 0
-2494 -2497 0
-2494 -2498 0
-2494 -2499 0
-2494 -2500 0
-2494 -2501 0
-2494 -2502 0
-2494 -2503 0
-2494 -2504 0
-2494 -2505 0
-2494 -2506 0
-2495 -2496 0
-2495 -2497 0
-2495 -2498 0
-2495 -2499 0
-2495 -2500 0
-2495 -2501 0
-2495 -2502 0
-2495 -2503 0
-2495 -2504 0
-2495 -2505 0
-2495 -2506 0
-2496 -2497 0
-2496 -2498 0
-2496 -2499 0
-2496 -2500 0
-2496 -2501 0
-2496 -2502 0
-2496 -2503 0
-2496 -2504 0
-2496 -2505 0
-2496 -2506 0
-2497 -2498 0
-2497 -2499 0
-2497 -2500 0
-2497 -2501 0
-2497 -2502 0
-2497 -2503 0
-2497 -2504 0
-2497 -2505 0
-2497 -2506 0
-2498 -2499 0
-2498 -2500 0
-2498 -2501 0
-2498 -2502 0
-2498 -2503 0
-2498 -2504 0
-2498 -2505 0
-2498 -2506 0
-2499 -2500 0
-2499 -2501 0
-2499 -2502 0
-2499 -2503 0
-2499 -2504 0
-2499 -2505 0
-2499 -2506 0
-2500 -2501 0
-2500 -2502 0
-2500 -2503 0
-2500 -2504 0
-2500 -2505 0
-2500 -2506 0
-2501 -2502 0
-2501 -2503 0
-2501 -2504 0
-2501 -2505 0
-2501 -2506 0
-2502 -2503 0
-2502 -2504 0
-2502 -2505 0
-2502 -2506 0
-2503 -2504 0
-2503 -2505 0
-2503 -2506 0
-2504 -2505 0
-2504 -2506 0
-2505 -2506 0
